NAME: tsp25_30
COMMENT: 25-tsp problem (Padberg/Rinaldi)
TYPE: TSP
DIMENSION: 25
EDGE_WEIGHT_TYPE : EUC_2D
NODE_COORD_SECTION
1 16 13
2 21 14
3 20 14
4 33 23
5 19 13
6 10 1
7 25 13
8 5 12
9 11 11
10 16 9
11 22 35
12 18 10
13 23 33
14 11 4
15 32 40
16 31 23
17 14 21
18 31 11
19 39 29
20 35 20
21 27 34
22 0 10
23 18 30
24 2 15
25 34 12
